unsat
(forall ((A (_ BitVec 1))
         (B (_ BitVec 1))
         (C (_ BitVec 1))
         (D (_ BitVec 32))
         (E (_ BitVec 22))
         (F (_ BitVec 2))
         (G (_ BitVec 32))
         (H (_ BitVec 1))
         (I (_ BitVec 1))
         (J (_ BitVec 1))
         (K (_ BitVec 1))
         (L (_ BitVec 1))
         (M (_ BitVec 34))
         (N (_ BitVec 2))
         (O (_ BitVec 1))
         (P (_ BitVec 1))
         (Q (_ BitVec 1))
         (R (_ BitVec 6))
         (S (_ BitVec 6))
         (T (_ BitVec 1))
         (U (_ BitVec 1))
         (V (_ BitVec 1))
         (W (_ BitVec 1))
         (X (_ BitVec 1))
         (Y (_ BitVec 1))
         (Z (_ BitVec 2))
         (A1 (_ BitVec 1))
         (B1 (_ BitVec 1))
         (C1 (_ BitVec 1))
         (D1 (_ BitVec 6))
         (E1 (_ BitVec 1))
         (F1 (_ BitVec 6))
         (G1 (_ BitVec 1))
         (H1 (_ BitVec 1))
         (I1 (_ BitVec 6))
         (J1 (_ BitVec 1))
         (K1 (_ BitVec 1))
         (L1 (_ BitVec 1))
         (M1 (_ BitVec 1))
         (N1 (_ BitVec 32))
         (O1 (_ BitVec 1))
         (P1 (_ BitVec 1))
         (Q1 (_ BitVec 1))
         (R1 (_ BitVec 1))
         (S1 (_ BitVec 22))
         (T1 (_ BitVec 2))
         (U1 (_ BitVec 1))
         (V1 (_ BitVec 1))
         (W1 (_ BitVec 1))
         (X1 (_ BitVec 32))
         (Y1 (_ BitVec 1))
         (Z1 (_ BitVec 2))
         (A2 (_ BitVec 1))
         (B2 (_ BitVec 22))
         (C2 (_ BitVec 1)))
  (! (let ((a!1 (or (not (= ((_ extract 0 0) D1) #b1)) (= F1 #b000000)))
           (a!2 (or (= V1 #b0)
                    (= ((_ extract 8 8) X1) #b1)
                    (= ((_ extract 9 9) X1) #b1)
                    (= ((_ extract 12 12) X1) #b0)
                    (= ((_ extract 10 10) X1) #b0)))
           (a!4 (= (ite (= O #b1)
                        ((_ extract 4 0) F1)
                        (concat #b0 ((_ extract 4 1) F1)))
                   #b00000))
           (a!5 (and (not (= V1 #b0))
                     (not (= ((_ extract 8 8) X1) #b1))
                     (not (= ((_ extract 9 9) X1) #b1))
                     (not (= ((_ extract 12 12) X1) #b0))
                     (not (= ((_ extract 10 10) X1) #b0))))
           (a!6 (or (= V1 #b0)
                    (= ((_ extract 8 8) X1) #b1)
                    (= ((_ extract 9 9) X1) #b0)
                    (= ((_ extract 12 12) X1) #b0)
                    (= ((_ extract 10 10) X1) #b0)))
           (a!7 (not (or (= V1 #b0)
                         (= ((_ extract 8 8) X1) #b1)
                         (= ((_ extract 10 10) X1) #b1)
                         (= ((_ extract 12 12) X1) #b0))))
           (a!9 (or (= O #b0)
                    (not (= ((_ extract 5 5) I1) #b0))
                    (not (bvule ((_ extract 4 0) I1) #b10001))
                    (not (= U #b0))))
           (a!12 (or (= O #b1) (not (= ((_ extract 0 0) D1) #b1))))
           (a!13 (or (not (= O #b1)) (not (= ((_ extract 0 0) F) #b1))))
           (a!14 (ite (= O #b1)
                      (= ((_ extract 1 1) D1) #b0)
                      (= ((_ extract 2 2) D1) #b0)))
           (a!15 (not (or (= ((_ extract 8 8) G) #b1)
                          (= ((_ extract 12 12) G) #b0)
                          (= ((_ extract 10 10) G) #b0)
                          (= ((_ extract 9 9) G) #b1)
                          (= V1 #b0))))
           (a!17 (or (= ((_ extract 8 8) G) #b1)
                     (= ((_ extract 12 12) G) #b0)
                     (= ((_ extract 10 10) G) #b0)
                     (= ((_ extract 9 9) G) #b0)
                     (= V1 #b0)))
           (a!18 (not (or (= ((_ extract 10 10) G) #b1)
                          (= ((_ extract 8 8) G) #b1)
                          (= ((_ extract 12 12) G) #b0)
                          (= V1 #b0))))
           (a!21 (and (not (= ((_ extract 8 8) G) #b1))
                      (not (= ((_ extract 12 12) G) #b0))
                      (not (= ((_ extract 10 10) G) #b0))
                      (not (= ((_ extract 9 9) G) #b1))
                      (not (= V1 #b0))))
           (a!22 (ite (= O #b1)
                      (= ((_ extract 2 2) D1) #b0)
                      (= ((_ extract 3 3) D1) #b0)))
           (a!24 (or (= O #b0)
                     (not (or (= U #b0) (= H1 #b0)))
                     (not (= ((_ extract 5 5) I1) #b0))
                     (not (bvule ((_ extract 4 0) I1) #b10001))))
           (a!26 (not (= (ite (= C1 #b1) #b1 #b0) V1)))
           (a!28 (or (not (= ((_ extract 5 1) I1) #b00000))
                     (not ((_ bit2bool 3) D1))))
           (a!29 (or (not (= ((_ extract 5 5) I1) #b0))
                     (not (= ((_ extract 0 0) I1) #b0))
                     (not (= ((_ extract 2 2) I1) #b0))
                     (not (= ((_ extract 1 1) I1) #b0))
                     (not (= ((_ extract 4 4) I1) #b0))
                     (not (= ((_ extract 3 3) I1) #b0))))
           (a!33 (= (ite (= O #b1) ((_ extract 1 0) F1) ((_ extract 2 1) F1))
                    #b00))
           (a!44 (or (not (= E1 #b1)) (not (= ((_ extract 0 0) F) #b1))))
           (a!45 (or (not (= P #b1)) (not (= ((_ extract 0 0) F) #b1))))
           (a!46 (not (= ((_ extract 5 1) (bvadd #b111111 I1)) #b00000)))
           (a!47 (and (or (= O #b1) (= ((_ extract 0 0) F1) #b0))
                      (ite (= O #b1)
                           (= ((_ extract 0 0) F1) #b0)
                           (= ((_ extract 1 1) F1) #b0)))))
     (let ((a!3 (or (not a!2)
                    (and (not (= O #b1)) (= ((_ extract 0 0) F1) #b1))))
           (a!8 (not (or (not (= V #b1)) a!7)))
           (a!16 (or a!15 (and (not (= O #b1)) (= ((_ extract 0 0) F1) #b1))))
           (a!19 (not (or (not (= V #b1)) a!18)))
           (a!23 (or (not (or (= H1 #b0) (= V #b1))) a!7))
           (a!30 (ite (or (= O #b0) (not a!29))
                      ((_ extract 5 1) I1)
                      ((_ extract 5 1) (bvadd #b111111 I1))))
           (a!34 (and (or (= O #b1) (= ((_ extract 0 0) F1) #b0)) a!33))
           (a!35 (ite (or (= O #b0) (not a!29))
                      (= ((_ extract 5 5) I1) #b0)
                      (= ((_ extract 5 5) (bvadd #b111111 I1)) #b0)))
           (a!36 (ite (or (= O #b0) (not a!29))
                      (= ((_ extract 1 1) I1) #b0)
                      (= ((_ extract 1 1) (bvadd #b111111 I1)) #b0)))
           (a!37 (ite (or (= O #b0) (not a!29))
                      (= ((_ extract 4 4) I1) #b0)
                      (= ((_ extract 4 4) (bvadd #b111111 I1)) #b0)))
           (a!38 (ite (or (= O #b0) (not a!29))
                      (= ((_ extract 3 3) I1) #b0)
                      (= ((_ extract 3 3) (bvadd #b111111 I1)) #b0)))
           (a!39 (ite (or (= O #b0) (not a!29))
                      (= ((_ extract 2 2) I1) #b0)
                      (= ((_ extract 2 2) (bvadd #b111111 I1)) #b0)))
           (a!40 (not (ite (or (= O #b0) (not a!29))
                           (= ((_ extract 0 0) I1) #b0)
                           (= ((_ extract 0 0) I1) #b1))))
           (a!42 (ite (or (= O #b0) (not a!29)) I1 (bvadd #b111111 I1))))
     (let ((a!10 (and a!6 a!8 (or (not a!9) (= ((_ extract 0 0) Z) #b1))))
           (a!20 (and a!17 a!19 (or (not a!9) (= ((_ extract 0 0) Z) #b1))))
           (a!25 (and a!6
                      (not a!23)
                      (or (not a!24) (= ((_ extract 0 0) Z) #b1))))
           (a!27 (ite a!2 (ite a!6 (ite a!23 #b00 (ite a!24 Z #b11)) #b10) #b11))
           (a!31 (or (= (ite (= O #b1)
                             ((_ extract 2 0) F1)
                             ((_ extract 3 1) F1))
                        #b000)
                     (not (= a!30 #b00000))))
           (a!32 (or (not (= I #b0))
                     (ite (= O #b1)
                          (= ((_ extract 3 3) D1) #b0)
                          (= ((_ extract 4 4) D1) #b0))
                     (and (not a!3) a!4)
                     a!26))
           (a!41 (or (not a!35)
                     (not a!36)
                     (not a!37)
                     (not a!38)
                     (not a!39)
                     a!40))
           (a!49 (not (= ((_ extract 5 1) (bvadd #b111111 a!42)) #b00000))))
     (let ((a!11 (or (not (= I #b0))
                     (and (not a!3) a!4)
                     a!5
                     (not (= ((_ extract 1 1) Z) #b0))
                     a!10))
           (a!43 (= (ite a!41 ((_ extract 5 1) (bvadd #b111111 a!42)) a!30)
                    #b00000))
           (a!48 (or (not (= F #b01))
                     (not (= U #b1))
                     a!47
                     ((_ bit2bool 2) (ite a!41 (bvadd #b111111 a!42) a!42))
                     ((_ bit2bool 0) (ite a!41 (bvadd #b111111 a!42) a!42)))))
     (let ((a!50 (and (or ((_ bit2bool 2) I1) (not ((_ bit2bool 1) F1)))
                      (or (not (= J #b1)) (= ((_ extract 1 1) F) #b1))
                      a!1
                      (or (= F1 #b000000) (not ((_ bit2bool 1) D1)))
                      (or (not ((_ bit2bool 1) D1)) (not (= I #b0)))
                      (or (= ((_ extract 0 0) D1) #b0) (not (= H1 #b0)))
                      (or (not ((_ bit2bool 1) D1)) (not (= H1 #b0)))
                      (or ((_ bit2bool 0) I1) (not ((_ bit2bool 0) D1)))
                      (or (not ((_ bit2bool 0) D1)) (not (= U #b0)))
                      (or (not ((_ bit2bool 0) D1))
                          (= ((_ extract 2 2) I1) #b1))
                      (or (not ((_ bit2bool 0) D1)) ((_ bit2bool 0) B1))
                      (or ((_ bit2bool 0) R1) (not ((_ bit2bool 1) D1)))
                      (or ((_ bit2bool 0) R1) (not ((_ bit2bool 0) D1)))
                      (or (= Z #b00) (not (= J #b1)))
                      (not (= Z #b01))
                      a!11
                      (or (not (= H1 #b0)) (and (not a!3) a!4) (and a!6 a!12))
                      (or (not ((_ bit2bool 1) D1)) (not (= U #b0)))
                      a!13
                      (or a!14 (not (= R1 #b0)))
                      (or (not ((_ bit2bool 1) D1))
                          (= ((_ extract 2 2) I1) #b1))
                      (or (= F1 #b000000) (not ((_ bit2bool 2) D1)))
                      (or (not (= Z #b10))
                          (not (= M1 #b0))
                          (and (not a!3) a!4)
                          a!5
                          (and a!6 a!8 (not a!9)))
                      (or (not (= Z #b10)) (= ((_ extract 4 1) F1) #x0))
                      (or (not (= H1 #b0)) (= ((_ extract 4 1) F1) #x0))
                      (or (not ((_ bit2bool 0) F1)) (not (= H1 #b0)))
                      (or (not (= V #b1))
                          (= ((_ extract 0 0) Z) #b1)
                          (= ((_ extract 3 0) F1) #x0))
                      (or (not (= I1 #b000000)) (= ((_ extract 4 1) F1) #x0))
                      (or (not (= Y1 #b1))
                          (not (= R1 #b0))
                          (and (not a!16) a!4)
                          a!20
                          a!21)
                      (or (not (= I #b0)) a!22)
                      (or (= ((_ extract 2 2) D1) #b0) (not (= U #b0)))
                      (or (not ((_ bit2bool 2) D1))
                          ((_ bit2bool 0) I1)
                          ((_ bit2bool 2) I1))
                      (or (= F1 #b000000) (not ((_ bit2bool 3) D1)))
                      (or (not (= I #b0)) a!14)
                      (or (not (= T #b1)) (= ((_ extract 4 1) F1) #x0))
                      (or (= I1 #b000000) (not (= J #b1)))
                      (or (not (= T #b1))
                          ((_ bit2bool 0) B1)
                          (= ((_ extract 3 0) F1) #x0))
                      (or (= Z #b00) (not (= H #b0)) (not (= V #b0)) (= H1 #b0))
                      (or (not ((_ bit2bool 0) F1))
                          (= ((_ extract 2 2) I1) #b1))
                      (or (not (= M1 #b0))
                          ((_ bit2bool 0) R1)
                          (and (not a!16) a!4)
                          a!21
                          (and a!17 a!19 (not a!9)))
                      (or (not (= E1 #b1)) (not (= C1 #b1)) ((_ bit2bool 0) B1))
                      (or (not (= I #b0)) (= ((_ extract 4 1) F1) #x0))
                      (or (not (= I #b0))
                          ((_ bit2bool 0) R1)
                          (and (not a!3) a!4)
                          a!5
                          a!25)
                      (or (= ((_ extract 2 2) D1) #b0)
                          (not (= C1 #b1))
                          ((_ bit2bool 0) B1)
                          (not (= H1 #b0))
                          (not ((_ bit2bool 0) Y)))
                      (or (not ((_ bit2bool 0) C1)) (not (= P1 #b1)))
                      (or (not (= F #b01)) (not (= K1 #b0)))
                      (or (not (= P1 #b1)) (not (= H #b0)))
                      (or (not ((_ bit2bool 2) D1)) (not ((_ bit2bool 0) X)))
                      (or (not ((_ bit2bool 2) D1))
                          ((_ bit2bool 1) I1)
                          (= ((_ extract 2 2) I1) #b1))
                      (or ((_ bit2bool 12) N1) (= ((_ extract 4 1) F1) #x0))
                      (or (not (= V #b1))
                          (not (= M1 #b0))
                          (= ((_ extract 0 0) Z) #b1)
                          (= ((_ extract 4 0) F1) #b00000))
                      (or ((_ bit2bool 0) R1)
                          ((_ bit2bool 0) B1)
                          (not ((_ bit2bool 0) Y)))
                      (or (= Z #b00)
                          (not (= H1 #b1))
                          (not (= V #b0))
                          (= ((_ extract 10 10) G) #b0))
                      (or (not ((_ bit2bool 0) F1)) (= R1 #b1))
                      (or (= ((_ extract 3 1) F1) #b000)
                          (not ((_ bit2bool 0) X)))
                      (or ((_ bit2bool 1) I1)
                          (= ((_ extract 2 2) I1) #b1)
                          (= ((_ extract 3 1) F1) #b000))
                      (or (not (= M1 #b0))
                          (not (= E1 #b1))
                          (not ((_ bit2bool 32) M))
                          ((_ bit2bool 0) R1))
                      (or (not ((_ bit2bool 3) D1)) (not (= R1 #b0)))
                      (or (not (= O #b1))
                          (not (= I #b0))
                          (= ((_ extract 3 3) D1) #b0))
                      (or (= F1 #b000000) (not ((_ bit2bool 4) D1)))
                      (or ((_ bit2bool 0) R1) a!22)
                      (or (not (= F #b10)) (not (= P #b0)))
                      (or (not (= I #b0))
                          (not (= R1 #b0))
                          (and (not a!3) a!4)
                          a!26
                          (not (= a!27 #b10)))
                      (or (= Z #b00)
                          (not (= V #b0))
                          (= ((_ extract 3 1) F1) #b000))
                      a!28
                      (or (not (= M1 #b0)) (not (= F #b01)) ((_ bit2bool 0) B1))
                      (or (not (= C1 #b1)) (not (= F #b01)) ((_ bit2bool 0) B1))
                      (or (not (= M1 #b0))
                          ((_ bit2bool 0) E1)
                          (not (= O #b1))
                          (= ((_ extract 2 2) I1) #b1)
                          (= ((_ extract 3 0) F1) #x0))
                      (or (= ((_ extract 4 4) D1) #b0) (not (= T #b1)))
                      (or (= ((_ extract 4 4) D1) #b0) (not (= I1 #b000000)))
                      (or (= F1 #b000000) (not ((_ bit2bool 5) D1)))
                      (or ((_ bit2bool 0) B1)
                          (not ((_ bit2bool 0) Y))
                          (= ((_ extract 3 1) F1) #b000)
                          (not (= P #b1)))
                      (or (= R1 #b1) (= ((_ extract 4 1) F1) #x0))
                      (or (not (= O #b1)) (not (= P #b1)))
                      (or (not (= E1 #b1)) (not (= M1 #b0)) (= B1 #b1))
                      a!31
                      a!32
                      (or (not (= C1 #b1))
                          (not ((_ bit2bool 4) D1))
                          ((_ bit2bool 0) R1))
                      (or (= ((_ extract 4 4) D1) #b0)
                          (= Z #b00)
                          (not (= H1 #b1))
                          (not (= V #b0)))
                      (or (not ((_ bit2bool 32) M)) (not (= I #b0)))
                      (or (= ((_ extract 4 4) D1) #b0)
                          (not (= I #b0))
                          (not (= R1 #b0)))
                      (or (= ((_ extract 4 4) D1) #b0)
                          (not (= H #b0))
                          (not (= I #b0)))
                      (or ((_ bit2bool 0) I1)
                          ((_ bit2bool 2) I1)
                          (= ((_ extract 2 0) F1) #b000))
                      (or (not (= P1 #b1)) (= H1 #b0))
                      (or (= ((_ extract 4 4) D1) #b0)
                          (not (= H1 #b1))
                          (not (= R1 #b0)))
                      (or (= ((_ extract 4 4) D1) #b0)
                          (not (= M1 #b0))
                          (not (= R1 #b0)))
                      (or (= ((_ extract 4 4) D1) #b0)
                          (not (= H #b0))
                          (not (= R1 #b0)))
                      (or (not (= C1 #b1))
                          ((_ bit2bool 0) I)
                          (not ((_ bit2bool 4) D1)))
                      (or (not (= F #b01)) a!34 (not a!43))
                      (or (not ((_ bit2bool 0) F1)) (not (= V #b0)))
                      (or ((_ bit2bool 0) V) (not ((_ bit2bool 1) F1)))
                      (or (= K1 #b0) (= ((_ extract 0 0) F) #b1))
                      a!44
                      a!45
                      (or (= ((_ extract 2 1) F1) #b00) a!46)
                      a!48
                      (or (not (= U #b1)) a!33 a!49)
                      (or ((_ bit2bool 0) I1) (not ((_ bit2bool 0) F1))))))
       (= (INV!slice!1 A
                       B
                       C
                       D
                       E
                       F
                       G
                       H
                       I
                       J
                       K
                       L
                       M
                       N
                       O
                       P
                       Q
                       R
                       S
                       T
                       U
                       V
                       W
                       X
                       Y
                       Z
                       A1
                       B1
                       C1
                       D1
                       E1
                       F1
                       G1
                       H1
                       I1
                       J1
                       K1
                       L1
                       M1
                       N1
                       O1
                       P1
                       Q1
                       R1
                       S1
                       T1
                       U1
                       V1
                       W1
                       X1
                       Y1
                       Z1
                       A2
                       B2
                       C2)
          a!50))))))
     :weight 0))
